p cnf 180 610
c p weight 72 -1 0
c p weight -72 1 0
c p weight 74 6.12323399573676603586882014729198302312846062338790031898128063403419218957424163818359375E-17 0
c p weight -74 1 0
c p weight 75 1 0
c p weight -75 1 0
c p weight 76 -1 0
c p weight -76 1 0
c p weight 78 -1 0
c p weight -78 1 0
c p weight 81 -1 0
c p weight -81 1 0
c p weight 84 -1 0
c p weight -84 1 0
c p weight 87 -1 0
c p weight -87 1 0
c p weight 90 -1 0
c p weight -90 1 0
c p weight 93 -1 0
c p weight -93 1 0
c p weight 96 -1 0
c p weight -96 1 0
c p weight 99 -1 0
c p weight -99 1 0
c p weight 102 -1 0
c p weight -102 1 0
c p weight 105 -1 0
c p weight -105 1 0
c p weight 108 -1 0
c p weight -108 1 0
c p weight 111 -1 0
c p weight -111 1 0
c p weight 114 -1 0
c p weight -114 1 0
c p weight 117 -1 0
c p weight -117 1 0
c p weight 120 -1 0
c p weight -120 1 0
c p weight 123 -1 0
c p weight -123 1 0
c p weight 126 -1 0
c p weight -126 1 0
c p weight 129 -1 0
c p weight -129 1 0
c p weight 132 -1 0
c p weight -132 1 0
c p weight 135 -1 0
c p weight -135 1 0
c p weight 138 -1 0
c p weight -138 1 0
c p weight 141 -1 0
c p weight -141 1 0
c p weight 144 -1 0
c p weight -144 1 0
c p weight 147 -1 0
c p weight -147 1 0
c p weight 150 -1 0
c p weight -150 1 0
c p weight 153 -1 0
c p weight -153 1 0
c p weight 156 -1 0
c p weight -156 1 0
c p weight 159 -1 0
c p weight -159 1 0
c p weight 162 -1 0
c p weight -162 1 0
c p weight 165 -1 0
c p weight -165 1 0
c p weight 168 -1 0
c p weight -168 1 0
c p weight 171 -1 0
c p weight -171 1 0
c p weight 174 -1 0
c p weight -174 1 0
c p weight 177 -1 0
c p weight -177 1 0
c p weight 180 -1 0
c p weight -180 1 0
-69 0
-67 0
-65 0
-63 0
-61 0
-59 0
-57 0
-55 0
-53 0
-51 0
-49 0
-47 0
-45 0
-43 0
-41 0
-39 0
-37 0
-35 0
-33 0
-31 0
-29 0
-27 0
-25 0
-23 0
-21 0
-19 0
-17 0
-15 0
-13 0
-11 0
-9 0
-7 0
-5 0
-3 0
-1 0
71 69 -70 0
71 -69 70 0
-71 69 70 0
-71 -69 -70 0
-72 69 0
-72 70 0
72 -69 -70 0
73 -69 71 0
-73 69 71 0
-74 71 0
73 -74 -69 0
-73 -74 69 0
73 74 69 -71 0
-73 74 -69 -71 0
-75 71 0
73 -75 69 0
-73 -75 -69 0
73 75 -69 -71 0
-73 75 69 -71 0
-76 73 0
-76 71 0
-76 -69 0
76 -73 69 -71 0
77 73 -71 0
77 -73 71 0
-77 73 71 0
-77 -73 -71 0
-78 73 0
-78 71 0
78 -73 -71 0
79 73 -67 0
79 -73 67 0
-79 73 67 0
-79 -73 -67 0
80 77 -68 0
80 -77 68 0
-80 77 68 0
-80 -77 -68 0
-81 73 0
-81 68 0
-81 67 -77 0
-81 -67 77 0
81 -73 67 77 -68 0
81 -73 -67 -77 -68 0
82 79 -65 0
82 -79 65 0
-82 79 65 0
-82 -79 -65 0
83 68 -66 0
83 -68 66 0
-83 68 66 0
-83 -68 -66 0
-84 79 0
-84 66 0
-84 65 -68 0
-84 -65 68 0
84 -79 65 68 -66 0
84 -79 -65 -68 -66 0
85 82 -63 0
85 -82 63 0
-85 82 63 0
-85 -82 -63 0
86 66 -64 0
86 -66 64 0
-86 66 64 0
-86 -66 -64 0
-87 82 0
-87 64 0
-87 63 -66 0
-87 -63 66 0
87 -82 63 66 -64 0
87 -82 -63 -66 -64 0
88 85 -61 0
88 -85 61 0
-88 85 61 0
-88 -85 -61 0
89 64 -62 0
89 -64 62 0
-89 64 62 0
-89 -64 -62 0
-90 85 0
-90 62 0
-90 61 -64 0
-90 -61 64 0
90 -85 61 64 -62 0
90 -85 -61 -64 -62 0
91 88 -59 0
91 -88 59 0
-91 88 59 0
-91 -88 -59 0
92 62 -60 0
92 -62 60 0
-92 62 60 0
-92 -62 -60 0
-93 88 0
-93 60 0
-93 59 -62 0
-93 -59 62 0
93 -88 59 62 -60 0
93 -88 -59 -62 -60 0
94 91 -57 0
94 -91 57 0
-94 91 57 0
-94 -91 -57 0
95 60 -58 0
95 -60 58 0
-95 60 58 0
-95 -60 -58 0
-96 91 0
-96 58 0
-96 57 -60 0
-96 -57 60 0
96 -91 57 60 -58 0
96 -91 -57 -60 -58 0
97 94 -55 0
97 -94 55 0
-97 94 55 0
-97 -94 -55 0
98 58 -56 0
98 -58 56 0
-98 58 56 0
-98 -58 -56 0
-99 94 0
-99 56 0
-99 55 -58 0
-99 -55 58 0
99 -94 55 58 -56 0
99 -94 -55 -58 -56 0
100 97 -53 0
100 -97 53 0
-100 97 53 0
-100 -97 -53 0
101 56 -54 0
101 -56 54 0
-101 56 54 0
-101 -56 -54 0
-102 97 0
-102 54 0
-102 53 -56 0
-102 -53 56 0
102 -97 53 56 -54 0
102 -97 -53 -56 -54 0
103 100 -51 0
103 -100 51 0
-103 100 51 0
-103 -100 -51 0
104 54 -52 0
104 -54 52 0
-104 54 52 0
-104 -54 -52 0
-105 100 0
-105 52 0
-105 51 -54 0
-105 -51 54 0
105 -100 51 54 -52 0
105 -100 -51 -54 -52 0
106 103 -49 0
106 -103 49 0
-106 103 49 0
-106 -103 -49 0
107 52 -50 0
107 -52 50 0
-107 52 50 0
-107 -52 -50 0
-108 103 0
-108 50 0
-108 49 -52 0
-108 -49 52 0
108 -103 49 52 -50 0
108 -103 -49 -52 -50 0
109 106 -47 0
109 -106 47 0
-109 106 47 0
-109 -106 -47 0
110 50 -48 0
110 -50 48 0
-110 50 48 0
-110 -50 -48 0
-111 106 0
-111 48 0
-111 47 -50 0
-111 -47 50 0
111 -106 47 50 -48 0
111 -106 -47 -50 -48 0
112 109 -45 0
112 -109 45 0
-112 109 45 0
-112 -109 -45 0
113 48 -46 0
113 -48 46 0
-113 48 46 0
-113 -48 -46 0
-114 109 0
-114 46 0
-114 45 -48 0
-114 -45 48 0
114 -109 45 48 -46 0
114 -109 -45 -48 -46 0
115 112 -43 0
115 -112 43 0
-115 112 43 0
-115 -112 -43 0
116 46 -44 0
116 -46 44 0
-116 46 44 0
-116 -46 -44 0
-117 112 0
-117 44 0
-117 43 -46 0
-117 -43 46 0
117 -112 43 46 -44 0
117 -112 -43 -46 -44 0
118 115 -41 0
118 -115 41 0
-118 115 41 0
-118 -115 -41 0
119 44 -42 0
119 -44 42 0
-119 44 42 0
-119 -44 -42 0
-120 115 0
-120 42 0
-120 41 -44 0
-120 -41 44 0
120 -115 41 44 -42 0
120 -115 -41 -44 -42 0
121 118 -39 0
121 -118 39 0
-121 118 39 0
-121 -118 -39 0
122 42 -40 0
122 -42 40 0
-122 42 40 0
-122 -42 -40 0
-123 118 0
-123 40 0
-123 39 -42 0
-123 -39 42 0
123 -118 39 42 -40 0
123 -118 -39 -42 -40 0
124 121 -37 0
124 -121 37 0
-124 121 37 0
-124 -121 -37 0
125 40 -38 0
125 -40 38 0
-125 40 38 0
-125 -40 -38 0
-126 121 0
-126 38 0
-126 37 -40 0
-126 -37 40 0
126 -121 37 40 -38 0
126 -121 -37 -40 -38 0
127 124 -35 0
127 -124 35 0
-127 124 35 0
-127 -124 -35 0
128 38 -36 0
128 -38 36 0
-128 38 36 0
-128 -38 -36 0
-129 124 0
-129 36 0
-129 35 -38 0
-129 -35 38 0
129 -124 35 38 -36 0
129 -124 -35 -38 -36 0
130 127 -33 0
130 -127 33 0
-130 127 33 0
-130 -127 -33 0
131 36 -34 0
131 -36 34 0
-131 36 34 0
-131 -36 -34 0
-132 127 0
-132 34 0
-132 33 -36 0
-132 -33 36 0
132 -127 33 36 -34 0
132 -127 -33 -36 -34 0
133 130 -31 0
133 -130 31 0
-133 130 31 0
-133 -130 -31 0
134 34 -32 0
134 -34 32 0
-134 34 32 0
-134 -34 -32 0
-135 130 0
-135 32 0
-135 31 -34 0
-135 -31 34 0
135 -130 31 34 -32 0
135 -130 -31 -34 -32 0
136 133 -29 0
136 -133 29 0
-136 133 29 0
-136 -133 -29 0
137 32 -30 0
137 -32 30 0
-137 32 30 0
-137 -32 -30 0
-138 133 0
-138 30 0
-138 29 -32 0
-138 -29 32 0
138 -133 29 32 -30 0
138 -133 -29 -32 -30 0
139 136 -27 0
139 -136 27 0
-139 136 27 0
-139 -136 -27 0
140 30 -28 0
140 -30 28 0
-140 30 28 0
-140 -30 -28 0
-141 136 0
-141 28 0
-141 27 -30 0
-141 -27 30 0
141 -136 27 30 -28 0
141 -136 -27 -30 -28 0
142 139 -25 0
142 -139 25 0
-142 139 25 0
-142 -139 -25 0
143 28 -26 0
143 -28 26 0
-143 28 26 0
-143 -28 -26 0
-144 139 0
-144 26 0
-144 25 -28 0
-144 -25 28 0
144 -139 25 28 -26 0
144 -139 -25 -28 -26 0
145 142 -23 0
145 -142 23 0
-145 142 23 0
-145 -142 -23 0
146 26 -24 0
146 -26 24 0
-146 26 24 0
-146 -26 -24 0
-147 142 0
-147 24 0
-147 23 -26 0
-147 -23 26 0
147 -142 23 26 -24 0
147 -142 -23 -26 -24 0
148 145 -21 0
148 -145 21 0
-148 145 21 0
-148 -145 -21 0
149 24 -22 0
149 -24 22 0
-149 24 22 0
-149 -24 -22 0
-150 145 0
-150 22 0
-150 21 -24 0
-150 -21 24 0
150 -145 21 24 -22 0
150 -145 -21 -24 -22 0
151 148 -19 0
151 -148 19 0
-151 148 19 0
-151 -148 -19 0
152 22 -20 0
152 -22 20 0
-152 22 20 0
-152 -22 -20 0
-153 148 0
-153 20 0
-153 19 -22 0
-153 -19 22 0
153 -148 19 22 -20 0
153 -148 -19 -22 -20 0
154 151 -17 0
154 -151 17 0
-154 151 17 0
-154 -151 -17 0
155 20 -18 0
155 -20 18 0
-155 20 18 0
-155 -20 -18 0
-156 151 0
-156 18 0
-156 17 -20 0
-156 -17 20 0
156 -151 17 20 -18 0
156 -151 -17 -20 -18 0
157 154 -15 0
157 -154 15 0
-157 154 15 0
-157 -154 -15 0
158 18 -16 0
158 -18 16 0
-158 18 16 0
-158 -18 -16 0
-159 154 0
-159 16 0
-159 15 -18 0
-159 -15 18 0
159 -154 15 18 -16 0
159 -154 -15 -18 -16 0
160 157 -13 0
160 -157 13 0
-160 157 13 0
-160 -157 -13 0
161 16 -14 0
161 -16 14 0
-161 16 14 0
-161 -16 -14 0
-162 157 0
-162 14 0
-162 13 -16 0
-162 -13 16 0
162 -157 13 16 -14 0
162 -157 -13 -16 -14 0
163 160 -11 0
163 -160 11 0
-163 160 11 0
-163 -160 -11 0
164 14 -12 0
164 -14 12 0
-164 14 12 0
-164 -14 -12 0
-165 160 0
-165 12 0
-165 11 -14 0
-165 -11 14 0
165 -160 11 14 -12 0
165 -160 -11 -14 -12 0
166 163 -9 0
166 -163 9 0
-166 163 9 0
-166 -163 -9 0
167 12 -10 0
167 -12 10 0
-167 12 10 0
-167 -12 -10 0
-168 163 0
-168 10 0
-168 9 -12 0
-168 -9 12 0
168 -163 9 12 -10 0
168 -163 -9 -12 -10 0
169 166 -7 0
169 -166 7 0
-169 166 7 0
-169 -166 -7 0
170 10 -8 0
170 -10 8 0
-170 10 8 0
-170 -10 -8 0
-171 166 0
-171 8 0
-171 7 -10 0
-171 -7 10 0
171 -166 7 10 -8 0
171 -166 -7 -10 -8 0
172 169 -5 0
172 -169 5 0
-172 169 5 0
-172 -169 -5 0
173 8 -6 0
173 -8 6 0
-173 8 6 0
-173 -8 -6 0
-174 169 0
-174 6 0
-174 5 -8 0
-174 -5 8 0
174 -169 5 8 -6 0
174 -169 -5 -8 -6 0
175 172 -3 0
175 -172 3 0
-175 172 3 0
-175 -172 -3 0
176 6 -4 0
176 -6 4 0
-176 6 4 0
-176 -6 -4 0
-177 172 0
-177 4 0
-177 3 -6 0
-177 -3 6 0
177 -172 3 6 -4 0
177 -172 -3 -6 -4 0
178 175 -1 0
178 -175 1 0
-178 175 1 0
-178 -175 -1 0
179 4 -2 0
179 -4 2 0
-179 4 2 0
-179 -4 -2 0
-180 175 0
-180 2 0
-180 1 -4 0
-180 -1 4 0
180 -175 1 4 -2 0
180 -175 -1 -4 -2 0
-178 0
-175 0
-179 0
-172 0
-176 0
-169 0
-173 0
-166 0
-170 0
-163 0
-167 0
-160 0
-164 0
-157 0
-161 0
-154 0
-158 0
-151 0
-155 0
-148 0
-152 0
-145 0
-149 0
-142 0
-146 0
-139 0
-143 0
-136 0
-140 0
-133 0
-137 0
-130 0
-134 0
-127 0
-131 0
-124 0
-128 0
-121 0
-125 0
-118 0
-122 0
-115 0
-119 0
-112 0
-116 0
-109 0
-113 0
-106 0
-110 0
-103 0
-107 0
-100 0
-104 0
-97 0
-101 0
-94 0
-98 0
-91 0
-95 0
-88 0
-92 0
-85 0
-89 0
-82 0
-86 0
-79 0
-83 0
-73 0
-80 0
